
630.0
1080.0
630.0
630.0
630.0
900.0
630.0
630.0
630.0
630.0
630.0
780.0
630.0
630.0
630.0
660.0
630.0
630.0
1200.0
630.0
630.0
630.0
690.0
630.0
660.0
630.0
630.0
630.0
630.0
630.0
630.0
630.0
630.0
630.0
630.0
630.0
870.0
630.0
1170.0
630.0
630.0
870.0
630.0
630.0
630.0
630.0
630.0
630.0
630.0
630.0